000 000 000 000 000 000 000 000 -99 000 000 000 -99 -99 000 -99 -99 -99 000 000 000 -99 -99 000 000 000 000 000 000 -99 000
000 000 000 000 000 000 000 000 -99 000 000 000 -99 -99 -99 -99 -99 -99 -99 000 000 000 000 000 000 000 000 000 000 -99 000
000 000 000 000 000 000 -99 -99 -99 000 000 000 -99 000 000 -99 -99 -99 -99 -99 000 000 000 000 000 000 000 000 000 -99 -99
000 000 000 000 -99 -99 -99 -99 -99 000 000 000 000 000 000 000 000 -99 -99 000 000 000 000 000 000 000 000 000 000 -99 -99
000 -99 -99 -99 -99 -99 -99 -99 000 000 000 000 000 000 000 -99 -99 000 -99 -99 000 000 000 000 000 000 000 000 000 -99 -99
-99 -99 -99 -99 -99 -99 -99 000 000 000 000 000 000 000 000 -99 -99 000 000 000 000 000 000 000 000 -99 -99 -99 -99 -99 -99
-99 000 000 000 -99 -99 -99 000 000 000 000 000 000 000 000 -99 -99 000 000 000 000 000 000 000 000 -99 -99 -99 -99 -99 -99
-99 -99 000 000 -99 -99 -99 000 000 000 003 001 001 000 000 -99 000 000 000 000 000 000 000 000 000 -99 -99 -99 -99 -99 -99
-99 -99 -99 -99 -99 -99 -99 000 000 001 004 005 003 000 000 000 001 001 000 000 000 000 000 000 000 -99 -99 -99 -99 -99 -99
-99 -99 -99 -99 -99 -99 -99 000 001 006 007 009 005 001 000 000 001 001 000 000 000 000 -99 000 000 -99 -99 -99 -99 000 000
-99 -99 -99 000 000 -99 001 001 001 006 016 014 016 010 001 000 000 000 000 000 000 -99 -99 000 000 -99 -99 -99 000 000 000
000 -99 -99 -99 000 000 001 001 002 003 009 010 016 029 001 000 001 000 000 000 000 -99 -99 000 000 -99 000 000 000 000 000
000 -99 -99 -99 000 000 001 001 002 001 004 005 014 013 004 001 001 000 000 000 000 000 -99 000 000 000 000 -99 000 000 000
-99 -99 000 000 000 000 001 001 002 002 002 004 004 006 003 001 001 001 000 000 000 000 -99 000 000 000 000 -99 000 000 -99
000 -99 -99 -99 000 000 001 002 001 002 002 003 003 003 005 002 001 001 001 000 000 000 -99 000 000 000 000 000 000 001 -99
000 -99 -99 -99 000 000 000 000 001 002 002 002 001 002 010 004 000 001 001 000 000 000 -99 000 000 000 000 000 000 000 -99
-99 -99 -99 -99 -99 000 000 000 001 001 001 001 000 001 005 005 000 000 001 000 000 000 000 -99 000 000 000 -99 000 000 -99
000 -99 000 -99 -99 -99 000 000 000 000 000 000 000 001 002 005 000 000 001 000 -99 -99 000 -99 000 000 000 -99 000 000 -99
000 000 000 -99 -99 -99 000 000 000 000 000 000 000 000 000 001 000 000 000 000 000 000 000 -99 -99 000 000 -99 -99 000 -99
000 000 000 -99 -99 -99 -99 000 000 000 000 000 000 000 000 000 000 000 000 000 000 000 000 -99 001 001 000 -99 -99 -99 -99
000 000 000 -99 -99 -99 -99 -99 000 000 000 -99 000 000 000 000 000 000 -99 000 000 000 000 -99 001 002 000 -99 -99 -99 -99
000 000 000 000 000 -99 -99 000 000 000 000 -99 000 000 000 000 000 000 000 000 000 000 000 -99 001 003 001 -99 -99 -99 -99
000 000 000 000 000 -99 -99 000 000 000 000 -99 000 000 000 000 000 000 000 000 002 000 000 -99 001 005 004 -99 -99 -99 -99
000 000 000 000 000 000 000 000 000 000 -99 -99 000 000 000 000 000 000 000 000 002 000 000 -99 002 005 006 -99 -99 -99 000
000 000 000 000 000 000 000 000 000 000 -99 -99 000 000 000 000 000 000 000 000 001 000 000 -99 004 004 005 -99 -99 003 000
000 000 000 000 000 000 000 000 000 000 000 -99 000 000 000 000 000 000 000 000 000 000 000 -99 -99 -99 -99 -99 -99 003 001
000 000 000 000 000 000 000 000 000 000 000 -99 -99 000 000 -99 000 000 000 000 000 000 -99 -99 -99 -99 -99 -99 -99 012 001
000 000 000 000 000 000 000 000 000 000 -99 -99 -99 000 000 -99 -99 000 000 000 000 000 -99 -99 -99 -99 -99 -99 010 008 000
000 000 000 000 000 000 000 000 000 000 -99 -99 -99 -99 000 -99 -99 -99 000 000 000 000 -99 -99 -99 -99 -99 -99 006 006 000
000 000 000 000 000 000 000 000 000 000 -99 -99 -99 000 000 000 -99 -99 000 000 000 -99 -99 -99 -99 -99 -99 006 006 010 000
000 000 000 000 000 000 000 000 000 000 -99 -99 -99 000 000 -99 -99 -99 000 000 -99 -99 -99 -99 -99 -99 -99 006 010 013 000
000 000 -99 000 000 -99 -99 000 000 -99 -99 -99 -99 000 000 000 000 000 000 -99 -99 -99 -99 000 000 -99 -99 009 012 006 000
000 000 000 000 000 -99 -99 000 000 -99 -99 -99 -99 000 000 000 000 000 000 -99 -99 -99 -99 000 000 -99 002 010 006 001 000
000 000 000 000 000 000 -99 000 000 -99 -99 000 -99 000 000 000 000 000 -99 000 -99 -99 000 000 000 000 000 004 002 000 000
000 000 000 000 000 000 000 000 000 000 000 000 000 001 000 001 000 001 000 000 -99 -99 000 000 000 000 000 001 001 000 000
000 000 000 000 000 000 000 000 000 000 000 000 000 001 001 003 003 001 000 000 000 000 000 000 000 000 000 000 000 000 001
000 000 -99 000 000 -99 -99 000 000 000 001 000 000 001 001 004 003 000 000 000 000 000 000 000 000 000 000 000 000 000 000
000 000 -99 000 000 -99 -99 000 000 001 001 000 000 002 009 016 007 000 000 000 000 000 000 000 000 000 000 -99 000 000 000
-99 000 000 000 000 -99 -99 000 000 001 000 000 005 006 017 019 002 000 000 000 000 000 000 000 000 000 000 -99 -99 000 -99
-99 000 000 000 000 000 000 000 000 000 000 009 012 019 037 011 003 000 000 000 000 000 000 000 000 000 000 000 -99 -99 -99
000 000 000 000 000 000 000 000 000 000 004 024 016 014 023 007 005 001 000 000 000 000 000 002 001 000 000 000 000 -99 -99
000 000 -99 000 -99 000 000 000 000 000 012 039 038 015 015 009 010 004 000 000 000 000 001 005 001 001 001 000 000 -99 -99
000 -99 -99 -99 000 000 -99 -99 000 002 012 025 026 019 010 010 016 008 001 000 000 000 005 003 001 003 003 000 -99 -99 001
000 -99 -99 -99 -99 000 -99 -99 000 000 002 015 018 012 005 006 008 007 004 000 000 001 007 011 001 008 004 000 -99 -99 001
000 -99 -99 -99 000 -99 -99 -99 000 000 001 017 016 008 004 006 013 013 006 001 000 003 010 004 003 031 003 000 -99 -99 002
000 -99 -99 -99 -99 -99 -99 -99 000 000 001 009 021 021 011 007 018 014 005 002 003 004 005 001 003 015 002 000 009 013 002
000 -99 -99 -99 -99 -99 -99 000 000 000 000 002 017 019 012 008 012 011 010 015 006 001 001 000 004 013 000 000 005 012 006
-99 -99 -99 -99 -99 -99 -99 000 000 000 000 002 011 019 021 011 007 015 029 043 017 001 000 001 016 003 000 002 013 013 006
-99 -99 -99 -99 -99 -99 -99 -99 -99 000 000 003 004 025 028 026 022 022 041 065 028 005 001 003 024 002 000 001 021 005 012
-99 -99 -99 -99 -99 -99 -99 -99 -99 000 000 001 006 018 026 039 034 029 047 035 013 002 000 002 002 001 000 001 001 001 010
-99 -99 -99 -99 -99 -99 -99 -99 000 000 000 000 003 005 016 035 052 039 019 007 005 001 000 001 000 000 000 000 000 001 003
-99 -99 -99 -99 -99 -99 000 000 000 001 000 000 000 001 018 054 047 033 019 008 008 001 000 000 000 000 -99 -99 000 000 002
-99 -99 -99 -99 -99 -99 000 000 000 001 000 000 000 001 012 021 029 015 009 022 011 002 000 000 000 -99 -99 -99 -99 000 004
-99 -99 -99 -99 -99 000 000 000 000 000 000 000 000 001 001 004 006 019 021 021 012 001 000 001 -99 -99 -99 -99 -99 001 010
-99 -99 -99 -99 -99 000 000 000 002 001 001 001 -99 000 001 001 001 020 040 016 028 006 001 -99 -99 -99 -99 -99 001 002 021
